c A SAT instance generated from a 3-CNF formula that had 60 clauses and 10 variables
p cnf 10 60
-2 -10 -6 0
7 -2 -10 0
-1 9 -2 0
10 7 -6 0
9 2 -10 0
7 -8 2 0
-1 -3 9 0
-7 9 -6 0
-4 1 7 0
9 5 10 0
10 -7 -1 0
7 -9 5 0
6 7 10 0
4 -1 7 0
-9 1 6 0
-3 9 -1 0
-6 -1 3 0
-10 3 -2 0
-8 7 4 0
6 -9 -10 0
8 -2 -6 0
4 8 -3 0
-7 -5 -6 0
6 2 -10 0
-3 -4 8 0
-6 4 -5 0
10 1 -9 0
6 -4 5 0
3 -10 -9 0
9 1 -7 0
3 -5 8 0
-10 1 -5 0
9 4 5 0
10 -3 -1 0
-8 10 -5 0
-4 6 2 0
7 -10 -4 0
3 -4 -5 0
2 -3 7 0
3 -5 -9 0
-6 -1 5 0
10 7 -2 0
-4 6 -10 0
10 -5 -8 0
8 5 10 0
1 -4 -8 0
-1 -10 2 0
6 -5 -2 0
-6 8 3 0
10 7 6 0
-7 -1 -6 0
6 -1 -7 0
-6 7 -1 0
9 6 1 0
8 2 9 0
-7 -5 -9 0
-5 6 7 0
-3 6 -5 0
-1 -4 3 0
10 7 4 0
%
0

2 14 23 51 76 75 9 78 42 17
